33D32945 STP File, STP Format Version 1.0

SECTION Comment
Name    "B01"
Creator "J. E. Beasley"
Remark  "Sparse graph with random weights"
END

SECTION Graph
Nodes 8
Edges 9
E 1 7 6
E 1 8 6
E 1 6 8
E 7 4 3
E 8 5 1
E 6 5 1
E 4 3 1
E 4 2 5
E 5 2 5
END

SECTION Terminals
Terminals 5
T 1
T 2
T 3
T 4
T 5
END

EOF